job_count = 18 ;
duration = [|14, 15, 16|16, 7, 6|29, 23, 8|5, 17, 6|14, 2, 2|18, 17, 2|25, 13, 13|21, 24, 17|25, 2, 13|25, 2, 9|9, 9, 4|10, 22, 8|19, 9, 16|23, 17, 2|21, 23, 16|7, 4, 11|4, 16, 13|19, 22, 16|] ;
machine_count = 3 ;
cost = [|12, 48, 46|37, 25, 36|23, 44, 54|12, 30, 32|13, 40, 49|21, 29, 40|28, 22, 40|21, 32, 30|24, 47, 43|12, 31, 37|37, 29, 46|39, 35, 55|34, 47, 50|29, 44, 39|35, 36, 49|20, 37, 44|21, 28, 41|19, 28, 33|] ;
deadline = [42, 58, 58, 16, 40, 49, 26, 42, 21, 40, 34, 32, 30, 49, 32, 33, 50, 18] ;
release = [0, 0, 0, 0, 0, 0, 0, 0, 0, 0, 0, 0, 0, 0, 0, 0, 0, 0] ;
resource = [|1, 1, 1|1, 1, 1|9, 9, 9|5, 5, 5|8, 8, 8|3, 3, 3|7, 7, 7|1, 1, 1|5, 5, 5|4, 4, 4|9, 9, 9|4, 4, 4|1, 1, 1|3, 3, 3|9, 9, 9|2, 2, 2|6, 6, 6|6, 6, 6|] ;
capacities = [10, 10, 10] ;
